data/lp_files/q3/28_7.lp
\ Model foo
\ LP format - for model browsing. Use MPS format to capture full model detail.
Minimize
  z
Subject To
 allocateEach[1]: x[1,1] + x[2,1] = 1
 allocateEach[2]: x[1,2] + x[2,2] = 1
 allocateEach[3]: x[1,3] + x[2,3] = 1
 allocateEach[4]: x[1,4] + x[2,4] = 1
 allocateEach[5]: x[1,5] + x[2,5] = 1
 allocateEach[6]: x[1,6] + x[2,6] = 1
 allocateEach[7]: x[1,7] + x[2,7] = 1
 allocateEach[8]: x[1,8] + x[2,8] = 1
 allocateAllCash: cashProportion[1] + cashProportion[2] = 1
 findWorstP[1,2]: z + 0.1090254937946323 cashProportion[1]
   - 0.1090254937946323 cashProportion[2] + 0.1310123017098831 x[1,1]
   + 0.1692802500317991 x[1,2] + 0.0076499554812567 x[1,3]
   + 0.1577417186052005 x[1,4] + 0.0739011138771283 x[1,5]
   + 0.1541257063943452 x[1,6] + 0.0519506477931423 x[1,7]
   + 0.1453128123126124 x[1,8] - 0.1310123017098831 x[2,1]
   - 0.1692802500317991 x[2,2] - 0.0076499554812567 x[2,3]
   - 0.1577417186052005 x[2,4] - 0.0739011138771283 x[2,5]
   - 0.1541257063943452 x[2,6] - 0.0519506477931423 x[2,7]
   - 0.1453128123126124 x[2,8] >= 0
 findWorstP[2,1]: z - 0.1214501143655244 cashProportion[1]
   + 0.1214501143655244 cashProportion[2] - 0.1331295670303423 x[1,1]
   - 0.0285610185616258 x[1,2] - 0.1174827439629172 x[1,3]
   - 0.1832074975203935 x[1,4] - 0.1808392202902658 x[1,5]
   - 0.0668785296439487 x[1,6] - 0.070299374531911 x[1,7]
   - 0.0981519340930713 x[1,8] + 0.1331295670303423 x[2,1]
   + 0.0285610185616258 x[2,2] + 0.1174827439629172 x[2,3]
   + 0.1832074975203935 x[2,4] + 0.1808392202902658 x[2,5]
   + 0.0668785296439487 x[2,6] + 0.070299374531911 x[2,7]
   + 0.0981519340930713 x[2,8] >= 0
Bounds
 z <= 1
 -infinity <= cashProportion[1] <= 1
 -infinity <= cashProportion[2] <= 1
Binaries
 x[1,1] x[1,2] x[1,3] x[1,4] x[1,5] x[1,6] x[1,7] x[1,8] x[2,1] x[2,2]
 x[2,3] x[2,4] x[2,5] x[2,6] x[2,7] x[2,8]
End
